60 16
 0 1
 0 2
 0 7
 0 8
 0 9
 0 10
 0 14
 1 4
 1 7
 1 8
 1 9
 1 10
 1 11
 1 12
 1 14
 2 3
 2 5
 2 6
 2 7
 2 8
 2 10
 2 11
 3 4
 3 5
 3 6
 3 10
 3 15
 4 5
 4 6
 4 8
 4 9
 4 10
 4 14
 5 6
 5 8
 5 9
 5 11
 5 13
 5 14
 5 15
 6 15
 7 8
 1 10
 7 12
 7 14
 7 15
 8 11
 8 12
 8 14
 8 15
 9 13
 9 14
 10 12
 10 13
 10 14
 11 12
 11 14
 11 15
 12 13
 14 15